WARNING: for repeatability, setting FPU to use double precision
============================[ Problem Statistics ]=============================
|                                                                             |
|  Number of variables:           390                                         |
|  Number of clauses:            1771                                         |
|  Parse time:                   0.00 s                                       |
|                                                                             |
============================[ Search Statistics ]==============================
| Conflicts |          ORIGINAL         |          LEARNT          | Progress |
|           |    Vars  Clauses Literals |    Limit  Clauses Lit/Cl |          |
===============================================================================
|       100 |     390     1771     5885 |      649      100      6 |  0.001 % |
===============================================================================
restarts              : 2
conflicts             : 183            (91546 /sec)
decisions             : 537            (0.00 % random) (268634 /sec)
propagations          : 6635           (3319160 /sec)
conflict literals     : 1729           (10.65 % deleted)
Memory used           : 6.00 MB
CPU time              : 0.001999 s

SATISFIABLE
